data/OOEBPP/R1000/BPP_1000_100_0.1_0.7_8.txt.ins
1000
100 100
1 70 626
2 70 932
3 70 641
4 70 839
5 70 414
6 70 427
7 70 793
8 70 568
9 70 451
10 70 190
11 70 591
12 70 555
13 70 581
14 70 621
15 70 104
16 69 601
17 69 670
18 69 755
19 69 651
20 69 562
21 69 955
22 69 706
23 69 34
24 69 661
25 69 55
26 69 123
27 69 205
28 69 794
29 69 356
30 69 562
31 69 615
32 69 67
33 69 237
34 69 62
35 69 154
36 69 704
37 69 919
38 69 541
39 69 775
40 69 724
41 68 992
42 68 101
43 68 978
44 68 532
45 68 196
46 68 400
47 68 832
48 68 464
49 68 207
50 68 603
51 68 40
52 68 538
53 67 673
54 67 389
55 67 597
56 67 322
57 67 282
58 67 80
59 67 5
60 67 702
61 67 416
62 67 836
63 67 252
64 66 535
65 66 232
66 66 173
67 66 774
68 66 650
69 66 238
70 66 555
71 66 843
72 66 513
73 66 135
74 66 805
75 66 447
76 66 826
77 66 167
78 66 776
79 65 999
80 65 425
81 65 246
82 65 459
83 65 533
84 65 72
85 65 560
86 65 903
87 65 728
88 65 376
89 65 439
90 65 589
91 65 948
92 65 801
93 65 371
94 65 976
95 65 516
96 65 578
97 65 82
98 65 600
99 65 632
100 65 907
101 65 15
102 64 268
103 64 335
104 64 683
105 64 746
106 64 970
107 64 986
108 64 878
109 64 363
110 64 257
111 64 110
112 64 784
113 64 608
114 64 198
115 63 454
116 63 494
117 63 115
118 63 267
119 63 132
120 63 312
121 63 606
122 63 383
123 63 643
124 63 770
125 63 646
126 63 379
127 63 640
128 62 270
129 62 354
130 62 626
131 62 941
132 62 117
133 62 159
134 62 793
135 62 394
136 62 123
137 62 284
138 62 341
139 62 246
140 61 594
141 61 853
142 61 53
143 61 774
144 61 819
145 61 369
146 61 262
147 61 953
148 61 320
149 61 829
150 61 348
151 61 153
152 60 775
153 60 165
154 60 995
155 60 24
156 60 182
157 60 273
158 60 626
159 60 721
160 60 361
161 60 493
162 60 627
163 60 709
164 59 932
165 59 941
166 59 352
167 59 819
168 59 343
169 59 672
170 59 534
171 59 195
172 59 957
173 59 376
174 59 682
175 59 155
176 59 125
177 59 772
178 59 295
179 58 239
180 58 469
181 58 565
182 58 252
183 58 762
184 58 885
185 58 380
186 58 912
187 58 958
188 58 804
189 58 763
190 58 558
191 58 471
192 58 590
193 58 558
194 58 42
195 58 857
196 57 543
197 57 706
198 57 728
199 57 117
200 57 31
201 57 788
202 57 782
203 57 743
204 57 3
205 57 732
206 57 854
207 57 907
208 57 345
209 57 218
210 57 472
211 57 427
212 57 950
213 56 179
214 56 746
215 56 243
216 56 704
217 56 575
218 56 693
219 56 322
220 56 414
221 56 820
222 56 501
223 56 731
224 56 786
225 56 134
226 56 343
227 56 168
228 55 455
229 55 756
230 55 878
231 55 55
232 55 105
233 55 977
234 55 98
235 55 690
236 55 544
237 55 745
238 55 513
239 55 792
240 55 106
241 55 371
242 55 29
243 55 130
244 55 948
245 55 668
246 55 785
247 55 428
248 54 520
249 54 412
250 54 88
251 54 804
252 54 964
253 54 442
254 54 678
255 54 992
256 54 258
257 54 373
258 54 839
259 54 953
260 54 904
261 54 711
262 54 701
263 54 393
264 54 776
265 54 301
266 54 529
267 53 269
268 53 193
269 53 590
270 53 974
271 53 697
272 53 134
273 53 21
274 53 770
275 53 257
276 53 210
277 53 440
278 53 960
279 53 834
280 53 839
281 53 816
282 53 245
283 53 948
284 53 302
285 53 173
286 53 294
287 53 960
288 53 223
289 53 183
290 53 399
291 52 878
292 52 357
293 52 632
294 52 402
295 52 135
296 52 229
297 52 787
298 52 784
299 52 586
300 52 263
301 51 973
302 51 887
303 51 194
304 51 21
305 51 386
306 51 546
307 51 323
308 51 958
309 51 229
310 51 492
311 51 522
312 51 206
313 51 684
314 51 902
315 51 327
316 51 450
317 51 126
318 50 905
319 50 539
320 50 67
321 50 419
322 50 571
323 50 659
324 50 714
325 50 342
326 50 637
327 50 213
328 50 466
329 50 433
330 50 247
331 50 1000
332 50 391
333 49 27
334 49 335
335 49 193
336 49 691
337 49 616
338 49 119
339 49 394
340 49 325
341 49 195
342 49 52
343 49 462
344 49 0
345 49 165
346 48 47
347 48 498
348 48 140
349 48 885
350 48 790
351 48 141
352 48 27
353 48 304
354 48 412
355 48 778
356 48 817
357 48 280
358 48 441
359 48 830
360 48 776
361 48 523
362 48 274
363 48 14
364 48 248
365 47 948
366 47 816
367 47 976
368 47 648
369 47 929
370 47 227
371 47 666
372 47 762
373 47 414
374 47 418
375 47 443
376 47 204
377 47 690
378 47 888
379 47 320
380 47 906
381 46 202
382 46 312
383 46 507
384 46 88
385 46 48
386 46 603
387 46 707
388 46 919
389 46 657
390 46 427
391 46 56
392 46 416
393 46 294
394 45 655
395 45 392
396 45 788
397 45 970
398 45 483
399 45 347
400 45 753
401 45 990
402 45 606
403 45 721
404 45 789
405 44 997
406 44 777
407 44 668
408 44 220
409 44 669
410 44 168
411 44 231
412 44 615
413 44 63
414 44 634
415 44 939
416 44 636
417 44 41
418 43 235
419 43 215
420 43 237
421 43 743
422 43 889
423 43 527
424 43 782
425 43 544
426 43 702
427 43 39
428 43 805
429 43 454
430 43 527
431 43 587
432 43 165
433 43 755
434 43 362
435 43 80
436 43 792
437 43 241
438 43 565
439 43 371
440 42 822
441 42 840
442 42 661
443 42 818
444 42 703
445 42 729
446 42 519
447 42 24
448 42 594
449 42 962
450 42 167
451 42 366
452 42 780
453 42 128
454 42 699
455 42 900
456 41 728
457 41 935
458 41 656
459 41 637
460 41 590
461 41 5
462 41 535
463 41 130
464 41 117
465 41 238
466 41 426
467 41 468
468 40 615
469 40 720
470 40 646
471 40 399
472 40 866
473 40 699
474 40 991
475 40 160
476 40 240
477 40 228
478 40 780
479 40 928
480 40 886
481 40 604
482 39 720
483 39 573
484 39 494
485 39 717
486 39 306
487 39 549
488 39 707
489 39 973
490 39 405
491 39 156
492 39 927
493 39 233
494 39 192
495 39 717
496 39 816
497 39 168
498 39 382
499 39 24
500 39 90
501 39 910
502 39 2
503 39 918
504 39 467
505 39 918
506 39 744
507 39 340
508 39 980
509 38 734
510 38 269
511 38 806
512 38 983
513 38 306
514 38 417
515 38 794
516 38 816
517 38 167
518 38 823
519 38 678
520 38 315
521 38 896
522 38 100
523 38 434
524 38 896
525 38 671
526 38 585
527 37 431
528 37 815
529 37 312
530 37 759
531 37 192
532 37 938
533 37 904
534 37 24
535 37 194
536 37 251
537 37 707
538 37 741
539 37 585
540 37 672
541 37 832
542 37 358
543 37 723
544 36 47
545 36 268
546 36 952
547 36 204
548 36 823
549 36 411
550 36 580
551 36 837
552 36 789
553 36 121
554 36 101
555 36 636
556 36 583
557 36 252
558 35 331
559 35 635
560 35 299
561 35 526
562 35 751
563 35 15
564 35 274
565 35 129
566 35 629
567 35 830
568 35 109
569 35 239
570 35 496
571 35 107
572 35 219
573 35 78
574 35 12
575 35 669
576 35 513
577 35 991
578 34 154
579 34 786
580 34 56
581 34 108
582 34 26
583 34 924
584 34 459
585 34 936
586 34 226
587 34 215
588 34 399
589 34 13
590 34 207
591 34 438
592 34 724
593 34 666
594 34 318
595 34 411
596 34 242
597 34 932
598 33 75
599 33 152
600 33 919
601 33 948
602 33 599
603 33 432
604 33 882
605 33 710
606 33 243
607 33 129
608 33 383
609 33 323
610 33 267
611 33 969
612 33 88
613 33 515
614 33 73
615 33 727
616 33 70
617 33 337
618 32 338
619 32 550
620 32 631
621 32 342
622 32 52
623 32 805
624 32 358
625 32 585
626 32 324
627 32 80
628 32 531
629 32 6
630 31 914
631 31 819
632 31 398
633 31 512
634 31 961
635 31 570
636 31 892
637 31 743
638 31 618
639 31 891
640 31 338
641 31 986
642 31 267
643 31 791
644 31 276
645 31 917
646 31 456
647 30 484
648 30 908
649 30 669
650 30 978
651 30 399
652 30 697
653 30 31
654 30 550
655 30 715
656 30 24
657 30 213
658 30 855
659 30 462
660 30 28
661 29 146
662 29 720
663 29 138
664 29 121
665 29 358
666 29 140
667 29 666
668 29 923
669 29 625
670 29 45
671 29 959
672 29 530
673 29 756
674 29 206
675 28 12
676 28 769
677 28 737
678 28 370
679 28 720
680 28 55
681 28 549
682 28 694
683 28 605
684 28 838
685 28 718
686 28 562
687 28 901
688 28 127
689 28 947
690 27 311
691 27 513
692 27 381
693 27 289
694 27 177
695 27 475
696 27 938
697 27 233
698 27 256
699 27 402
700 27 331
701 27 36
702 27 740
703 27 902
704 27 377
705 27 809
706 27 391
707 27 28
708 27 113
709 27 682
710 27 930
711 27 682
712 26 739
713 26 212
714 26 306
715 26 867
716 26 511
717 26 586
718 26 620
719 26 249
720 26 251
721 26 91
722 26 514
723 26 775
724 26 84
725 26 701
726 26 17
727 26 63
728 26 183
729 26 867
730 26 238
731 25 853
732 25 545
733 25 325
734 25 360
735 25 949
736 25 400
737 25 826
738 25 113
739 25 789
740 25 56
741 25 299
742 25 442
743 25 628
744 25 512
745 25 397
746 25 949
747 25 772
748 25 212
749 25 598
750 24 362
751 24 876
752 24 517
753 24 701
754 24 56
755 24 309
756 24 290
757 24 91
758 24 215
759 24 229
760 24 75
761 24 48
762 24 897
763 24 833
764 24 333
765 24 17
766 23 936
767 23 11
768 23 854
769 23 380
770 23 927
771 23 28
772 23 138
773 23 699
774 23 106
775 23 858
776 23 439
777 23 412
778 23 625
779 22 566
780 22 118
781 22 165
782 22 612
783 22 977
784 22 745
785 22 110
786 22 829
787 22 433
788 22 3
789 22 346
790 22 18
791 22 832
792 22 467
793 22 712
794 22 623
795 22 76
796 21 283
797 21 887
798 21 93
799 21 890
800 21 39
801 21 432
802 21 948
803 21 450
804 21 572
805 21 154
806 21 898
807 21 105
808 21 652
809 21 843
810 21 739
811 21 12
812 21 392
813 20 225
814 20 611
815 20 595
816 20 790
817 20 70
818 20 242
819 20 106
820 20 851
821 20 201
822 20 662
823 20 582
824 20 931
825 20 694
826 20 800
827 20 706
828 20 624
829 20 893
830 20 530
831 20 637
832 20 400
833 20 508
834 20 439
835 20 520
836 20 305
837 19 657
838 19 762
839 19 754
840 19 804
841 19 341
842 19 162
843 19 2
844 19 811
845 19 159
846 19 645
847 19 575
848 19 451
849 19 232
850 19 983
851 19 558
852 19 20
853 19 555
854 19 83
855 19 719
856 19 941
857 19 546
858 19 35
859 19 564
860 18 227
861 18 915
862 18 773
863 18 343
864 18 273
865 18 239
866 18 902
867 18 765
868 18 89
869 18 142
870 18 767
871 18 791
872 18 349
873 18 915
874 18 961
875 18 994
876 18 927
877 18 845
878 18 500
879 18 990
880 18 16
881 18 328
882 17 910
883 17 54
884 17 592
885 17 269
886 17 891
887 17 103
888 17 294
889 17 704
890 17 9
891 17 833
892 17 853
893 17 489
894 17 12
895 17 702
896 16 414
897 16 309
898 16 651
899 16 910
900 16 774
901 16 220
902 16 411
903 16 585
904 16 442
905 16 417
906 16 542
907 16 563
908 16 936
909 16 139
910 16 589
911 16 6
912 16 994
913 15 506
914 15 277
915 15 858
916 15 138
917 15 982
918 15 873
919 15 458
920 15 939
921 15 575
922 15 321
923 15 286
924 15 478
925 15 874
926 14 158
927 14 678
928 14 794
929 14 913
930 14 916
931 14 642
932 14 14
933 14 640
934 14 381
935 14 738
936 14 629
937 14 74
938 14 51
939 14 508
940 14 842
941 14 645
942 14 939
943 14 734
944 14 301
945 13 447
946 13 665
947 13 865
948 13 347
949 13 737
950 13 11
951 13 687
952 13 663
953 13 49
954 13 823
955 13 253
956 13 756
957 13 904
958 13 751
959 13 398
960 12 255
961 12 493
962 12 941
963 12 500
964 12 139
965 12 877
966 12 798
967 12 504
968 12 712
969 12 37
970 11 31
971 11 39
972 11 620
973 11 964
974 11 791
975 11 648
976 11 97
977 11 947
978 11 767
979 11 781
980 11 153
981 11 907
982 11 510
983 11 359
984 11 980
985 11 560
986 11 344
987 11 196
988 11 962
989 11 869
990 10 452
991 10 517
992 10 49
993 10 805
994 10 739
995 10 369
996 10 582
997 10 336
998 10 350
999 10 133
1000 10 196
