results/OOEBPP/BPP_1000_100_0.1_0.7_8.txt.ins.log
245,244.956,19.01,OPT,11513,0,0,AI,0,0.0367347,3.56735,1.05988,17.5706,0,2,0,99,99
